NAME: cuum300.tsp
TYPE: TSP
COMMENT: User-generated TSP file
DIMENSION: 300
EDGE_WEIGHT_TYPE: EUC_2D
NODE_COORD_SECTION
1 95.0 124.0
2 162.0 83.0
3 163.0 256.0
4 232.0 19.0
5 42.0 118.0
6 251.0 162.0
7 59.0 245.0
8 16.0 299.0
9 118.0 159.0
10 81.0 257.0
11 132.0 192.0
12 213.0 46.0
13 31.0 255.0
14 281.0 9.0
15 296.0 177.0
16 267.0 257.0
17 190.0 172.0
18 64.0 72.0
19 130.0 88.0
20 240.0 176.0
21 82.0 34.0
22 270.0 130.0
23 172.0 109.0
24 160.0 21.0
25 9.0 172.0
26 214.0 168.0
27 114.0 156.0
28 90.0 158.0
29 129.0 8.0
30 268.0 76.0
31 168.0 190.0
32 56.0 107.0
33 54.0 297.0
34 9.0 200.0
35 13.0 39.0
36 20.0 167.0
37 154.0 209.0
38 140.0 88.0
39 13.0 184.0
40 234.0 84.0
41 110.0 77.0
42 75.0 246.0
43 251.0 189.0
44 102.0 60.0
45 14.0 133.0
46 176.0 225.0
47 186.0 39.0
48 165.0 18.0
49 292.0 86.0
50 187.0 264.0
51 294.0 292.0
52 227.0 182.0
53 82.0 148.0
54 219.0 253.0
55 157.0 273.0
56 240.0 100.0
57 265.0 139.0
58 226.0 78.0
59 25.0 229.0
60 181.0 75.0
61 60.0 277.0
62 261.0 121.0
63 131.0 181.0
64 156.0 180.0
65 243.0 126.0
66 212.0 36.0
67 52.0 32.0
68 57.0 79.0
69 206.0 141.0
70 185.0 23.0
71 201.0 136.0
72 262.0 295.0
73 266.0 240.0
74 278.0 107.0
75 272.0 142.0
76 233.0 176.0
77 173.0 131.0
78 221.0 142.0
79 129.0 218.0
80 211.0 244.0
81 237.0 158.0
82 119.0 221.0
83 189.0 163.0
84 30.0 194.0
85 135.0 127.0
86 146.0 93.0
87 23.0 64.0
88 98.0 296.0
89 250.0 50.0
90 207.0 9.0
91 289.0 101.0
92 48.0 281.0
93 107.0 70.0
94 171.0 132.0
95 127.0 246.0
96 37.0 229.0
97 237.0 33.0
98 102.0 160.0
99 68.0 143.0
100 156.0 42.0
101 137.0 190.0
102 262.0 111.0
103 104.0 257.0
104 128.0 259.0
105 124.0 210.0
106 90.0 45.0
107 88.0 170.0
108 10.0 257.0
109 16.0 153.0
110 147.0 294.0
111 183.0 126.0
112 135.0 38.0
113 103.0 226.0
114 45.0 114.0
115 284.0 202.0
116 269.0 103.0
117 109.0 108.0
118 43.0 281.0
119 118.0 15.0
120 223.0 124.0
121 80.0 237.0
122 224.0 38.0
123 299.0 244.0
124 273.0 3.0
125 28.0 130.0
126 293.0 100.0
127 285.0 278.0
128 127.0 17.0
129 163.0 287.0
130 98.0 217.0
131 25.0 105.0
132 192.0 277.0
133 211.0 268.0
134 191.0 284.0
135 174.0 126.0
136 253.0 169.0
137 206.0 190.0
138 141.0 74.0
139 53.0 150.0
140 185.0 54.0
141 87.0 196.0
142 123.0 203.0
143 12.0 282.0
144 141.0 176.0
145 229.0 273.0
146 22.0 227.0
147 143.0 96.0
148 46.0 22.0
149 162.0 210.0
150 139.0 77.0
151 94.0 273.0
152 106.0 242.0
153 274.0 269.0
154 232.0 237.0
155 48.0 261.0
156 47.0 155.0
157 41.0 31.0
158 136.0 164.0
159 217.0 283.0
160 258.0 269.0
161 212.0 21.0
162 121.0 172.0
163 8.0 157.0
164 296.0 155.0
165 193.0 145.0
166 18.0 105.0
167 118.0 111.0
168 231.0 144.0
169 168.0 164.0
170 238.0 141.0
171 64.0 16.0
172 72.0 212.0
173 260.0 281.0
174 289.0 148.0
175 166.0 215.0
176 46.0 166.0
177 31.0 251.0
178 123.0 37.0
179 18.0 149.0
180 17.0 150.0
181 36.0 166.0
182 128.0 20.0
183 174.0 208.0
184 220.0 172.0
185 50.0 106.0
186 160.0 243.0
187 155.0 45.0
188 159.0 106.0
189 189.0 57.0
190 54.0 214.0
191 145.0 118.0
192 105.0 195.0
193 281.0 69.0
194 196.0 29.0
195 116.0 57.0
196 160.0 85.0
197 59.0 238.0
198 219.0 11.0
199 66.0 123.0
200 67.0 39.0
201 260.0 132.0
202 124.0 6.0
203 292.0 47.0
204 202.0 24.0
205 9.0 32.0
206 220.0 5.0
207 193.0 154.0
208 246.0 248.0
209 53.0 225.0
210 177.0 281.0
211 116.0 94.0
212 22.0 253.0
213 136.0 122.0
214 10.0 297.0
215 278.0 294.0
216 19.0 175.0
217 105.0 3.0
218 269.0 62.0
219 232.0 188.0
220 216.0 178.0
221 152.0 205.0
222 15.0 164.0
223 125.0 206.0
224 286.0 10.0
225 151.0 252.0
226 215.0 6.0
227 150.0 261.0
228 98.0 119.0
229 141.0 268.0
230 36.0 120.0
231 262.0 156.0
232 77.0 112.0
233 199.0 155.0
234 221.0 232.0
235 270.0 12.0
236 218.0 45.0
237 122.0 57.0
238 111.0 282.0
239 175.0 210.0
240 275.0 67.0
241 271.0 102.0
242 232.0 191.0
243 125.0 251.0
244 265.0 109.0
245 87.0 153.0
246 31.0 95.0
247 135.0 41.0
248 128.0 76.0
249 118.0 85.0
250 48.0 32.0
251 67.0 122.0
252 62.0 42.0
253 277.0 122.0
254 290.0 114.0
255 7.0 16.0
256 144.0 172.0
257 160.0 209.0
258 296.0 108.0
259 79.0 235.0
260 242.0 195.0
261 119.0 236.0
262 177.0 34.0
263 68.0 216.0
264 214.0 183.0
265 184.0 179.0
266 54.0 67.0
267 290.0 159.0
268 66.0 184.0
269 234.0 270.0
270 118.0 108.0
271 102.0 83.0
272 185.0 176.0
273 142.0 221.0
274 50.0 175.0
275 283.0 13.0
276 8.0 65.0
277 154.0 174.0
278 265.0 85.0
279 217.0 5.0
280 294.0 30.0
281 172.0 71.0
282 145.0 278.0
283 21.0 59.0
284 200.0 104.0
285 273.0 26.0
286 135.0 13.0
287 240.0 194.0
288 233.0 220.0
289 8.0 266.0
290 297.0 122.0
291 289.0 250.0
292 130.0 230.0
293 6.0 217.0
294 80.0 54.0
295 280.0 105.0
296 218.0 248.0
297 246.0 184.0
298 252.0 71.0
299 105.0 176.0
300 282.0 243.0
EOF





